logging:
Cal Parameter: OK
initial master model!!
initial sub model!
CPXPARAM_TimeLimit                               300
Tried aggregator 2 times.
MIP Presolve eliminated 134972 rows and 131093 columns.
MIP Presolve modified 110865 coefficients.
Aggregator did 6 substitutions.
Reduced MIP has 9891 rows, 118222 columns, and 1296058 nonzeros.
Reduced MIP has 118222 binaries, 0 generals, 0 SOSs, and 0 indicators.
Presolve time = 3.50 sec. (3098.24 ticks)
Tried aggregator 1 time.
Reduced MIP has 9891 rows, 118222 columns, and 1296058 nonzeros.
Reduced MIP has 118222 binaries, 0 generals, 0 SOSs, and 0 indicators.
Presolve time = 1.42 sec. (777.66 ticks)
Probing fixed 14 vars, tightened 0 bounds.
Probing time = 1.42 sec. (573.24 ticks)
Clique table members: 643531.
MIP emphasis: balance optimality and feasibility.
MIP search method: dynamic search.
Parallel mode: deterministic, using up to 4 threads.
Root relaxation solution time = 52.28 sec. (35439.33 ticks)

        Nodes                                         Cuts/
   Node  Left     Objective  IInf  Best Integer    Best Bound    ItCnt     Gap

      0     0    infeasible                                      27750         

Root node processing (before b&c):
  Real time             =   98.52 sec. (42584.16 ticks)
Parallel b&c, 4 threads:
  Real time             =    0.00 sec. (0.00 ticks)
  Sync time (average)   =    0.00 sec.
  Wait time (average)   =    0.00 sec.
                          ------------
Total (root+branch&cut) =   98.52 sec. (42584.16 ticks)
